10
0 79 11 27 61 13 50 44 65 2 
22 0 2 98 22 69 36 61 84 49 
23 34 0 64 45 23 60 52 76 52 
7 25 45 0 67 2 22 56 90 14 
69 51 71 87 0 72 77 53 97 29 
91 39 90 74 76 0 46 63 100 82 
84 12 94 33 66 91 0 17 64 42 
19 53 42 78 17 51 91 0 9 23 
8 63 93 97 68 90 77 81 0 13 
52 11 46 29 51 98 55 19 74 0 
